
Gurobi 9.1.0 (linux64, gurobi_cl) logging started Tue Dec  8 20:01:17 2020

Using license file /home/micaellgoms/gurobi.lic
Set parameter LogFile to value gurobi.log
Academic license - for non-commercial use only - expires 2021-02-06

Gurobi Optimizer version 9.1.0 build v9.1.0rc0 (linux64)
Copyright (c) 2020, Gurobi Optimization, LLC


Error 10003: Unable to open file '/opt/gurobi910/linux64/examples/data/coins.lp' for input


Gurobi 9.1.0 (linux64, gurobi_cl) logging started Tue Dec  8 20:01:30 2020

Using license file /home/micaellgoms/gurobi.lic
Set parameter LogFile to value gurobi.log
Academic license - for non-commercial use only - expires 2021-02-06

Gurobi Optimizer version 9.1.0 build v9.1.0rc0 (linux64)
Copyright (c) 2020, Gurobi Optimization, LLC

Read LP format model from file /home/micaellgoms/gurobi910/linux64/examples/data/coins.lp
Reading time = 0.06 seconds
: 4 rows, 9 columns, 16 nonzeros
Thread count: 2 physical cores, 4 logical processors, using up to 4 threads
Optimize a model with 4 rows, 9 columns and 16 nonzeros
Model fingerprint: 0x43bf48c0
Variable types: 4 continuous, 5 integer (0 binary)
Coefficient statistics:
  Matrix range     [6e-02, 7e+00]
  Objective range  [1e-02, 1e+00]
  Bounds range     [5e+01, 1e+03]
  RHS range        [0e+00, 0e+00]
Found heuristic solution: objective -0.0000000
Presolve removed 1 rows and 5 columns
Presolve time: 0.00s
Presolved: 3 rows, 4 columns, 9 nonzeros
Variable types: 0 continuous, 4 integer (0 binary)

Root relaxation: objective 1.134615e+02, 2 iterations, 0.00 seconds

    Nodes    |    Current Node    |     Objective Bounds      |     Work
 Expl Unexpl |  Obj  Depth IntInf | Incumbent    BestBd   Gap | It/Node Time

     0     0  113.46154    0    1   -0.00000  113.46154      -     -    0s
H    0     0                     113.4500000  113.46154  0.01%     -    0s
     0     0  113.46154    0    1  113.45000  113.46154  0.01%     -    0s

Explored 1 nodes (2 simplex iterations) in 0.00 seconds
Thread count was 4 (of 4 available processors)

Solution count 2: 113.45 -0 

Optimal solution found (tolerance 1.00e-04)
Best objective 1.134500000000e+02, best bound 1.134500000000e+02, gap 0.0000%
